; Options: -q --produce-models --incremental --print-success --lang smt2.6 --arrays-exp
(set-logic ALL)

(declare-fun start!1245 () Bool)

(assert start!1245)

(declare-fun b!5832 () Bool)

(declare-fun res!4680 () Bool)

(declare-fun e!3037 () Bool)

(assert (=> b!5832 (=> (not res!4680) (not e!3037))))

(declare-datatypes ((array!482 0))(
  ( (array!483 (arr!212 (Array (_ BitVec 32) (_ FloatingPoint 11 53))) (size!212 (_ BitVec 32))) )
))
(declare-fun fq!78 () array!482)

(declare-fun fqInv!0 (array!482) Bool)

(assert (=> b!5832 (= res!4680 (fqInv!0 fq!78))))

(declare-fun b!5830 () Bool)

(declare-fun res!4682 () Bool)

(assert (=> b!5830 (=> (not res!4682) (not e!3037))))

(declare-fun qq!74 () array!482)

(declare-fun qqInv!0 (array!482) Bool)

(assert (=> b!5830 (= res!4682 (qqInv!0 qq!74))))

(declare-fun b!5833 () Bool)

(declare-fun jz!70 () (_ BitVec 32))

(declare-fun i!327 () (_ BitVec 32))

(assert (=> b!5833 (= e!3037 (and (bvslt i!327 jz!70) (let ((ix!234 (bvsub i!327 #b00000000000000000000000000000011))) (or (bvslt ix!234 #b00000000000000000000000000000000) (bvsge ix!234 (size!212 qq!74))))))))

(declare-fun res!4679 () Bool)

(assert (=> start!1245 (=> (not res!4679) (not e!3037))))

(assert (=> start!1245 (= res!4679 (and (bvsle #b00000000000000000000000000000000 jz!70) (bvslt jz!70 #b00000000000000000000000000010100) (= (size!212 qq!74) #b00000000000000000000000000010100)))))

(assert (=> start!1245 e!3037))

(assert (=> start!1245 true))

(declare-fun array_inv!162 (array!482) Bool)

(assert (=> start!1245 (array_inv!162 qq!74)))

(assert (=> start!1245 (array_inv!162 fq!78)))

(declare-fun b!5831 () Bool)

(declare-fun res!4681 () Bool)

(assert (=> b!5831 (=> (not res!4681) (not e!3037))))

(assert (=> b!5831 (= res!4681 (and (fp.leq (fp #b0 #b00000000000 #b0000000000000000000000000000000000000000000000000000) (select (store ((as const (Array (_ BitVec 32) (_ FloatingPoint 11 53))) (fp #b0 #b00000000000 #b0000000000000000000000000000000000000000000000000000)) #b00000000000000000000000000000000 (fp.mul roundNearestTiesToEven (fp #b0 #b01111111111 #b1001001000011111101101000000000000000000000000000000) (select (arr!212 qq!74) #b00000000000000000000000000000000))) #b00000000000000000000000000000000)) (fp.leq (select (store ((as const (Array (_ BitVec 32) (_ FloatingPoint 11 53))) (fp #b0 #b00000000000 #b0000000000000000000000000000000000000000000000000000)) #b00000000000000000000000000000000 (fp.mul roundNearestTiesToEven (fp #b0 #b01111111111 #b1001001000011111101101000000000000000000000000000000) (select (arr!212 qq!74) #b00000000000000000000000000000000))) #b00000000000000000000000000000000) (fp #b0 #b01111111110 #b1001001000011111101100001101101111000000100110000000)) (fp.leq (fp #b0 #b00000000000 #b0000000000000000000000000000000000000000000000000000) (select (store (store ((as const (Array (_ BitVec 32) (_ FloatingPoint 11 53))) (fp #b0 #b00000000000 #b0000000000000000000000000000000000000000000000000000)) #b00000000000000000000000000000000 (fp.mul roundNearestTiesToEven (fp #b0 #b01111111111 #b1001001000011111101101000000000000000000000000000000) (select (arr!212 qq!74) #b00000000000000000000000000000000))) #b00000000000000000000000000000001 (fp.add roundNearestTiesToEven (fp.mul roundNearestTiesToEven (fp #b0 #b01111111111 #b1001001000011111101101000000000000000000000000000000) (select (arr!212 qq!74) #b00000000000000000000000000000001)) (fp.mul roundNearestTiesToEven (fp #b0 #b01111100111 #b0100010001000010110100000000000000000000000000000000) (select (arr!212 qq!74) #b00000000000000000000000000000000)))) #b00000000000000000000000000000001)) (fp.leq (select (store (store ((as const (Array (_ BitVec 32) (_ FloatingPoint 11 53))) (fp #b0 #b00000000000 #b0000000000000000000000000000000000000000000000000000)) #b00000000000000000000000000000000 (fp.mul roundNearestTiesToEven (fp #b0 #b01111111111 #b1001001000011111101101000000000000000000000000000000) (select (arr!212 qq!74) #b00000000000000000000000000000000))) #b00000000000000000000000000000001 (fp.add roundNearestTiesToEven (fp.mul roundNearestTiesToEven (fp #b0 #b01111111111 #b1001001000011111101101000000000000000000000000000000) (select (arr!212 qq!74) #b00000000000000000000000000000001)) (fp.mul roundNearestTiesToEven (fp #b0 #b01111100111 #b0100010001000010110100000000000000000000000000000000) (select (arr!212 qq!74) #b00000000000000000000000000000000)))) #b00000000000000000000000000000001) (fp #b0 #b01111101000 #b0001101000100000100011001001010011001110101111100000)) (fp.leq (fp #b0 #b00000000000 #b0000000000000000000000000000000000000000000000000000) (select (store (store (store ((as const (Array (_ BitVec 32) (_ FloatingPoint 11 53))) (fp #b0 #b00000000000 #b0000000000000000000000000000000000000000000000000000)) #b00000000000000000000000000000000 (fp.mul roundNearestTiesToEven (fp #b0 #b01111111111 #b1001001000011111101101000000000000000000000000000000) (select (arr!212 qq!74) #b00000000000000000000000000000000))) #b00000000000000000000000000000001 (fp.add roundNearestTiesToEven (fp.mul roundNearestTiesToEven (fp #b0 #b01111111111 #b1001001000011111101101000000000000000000000000000000) (select (arr!212 qq!74) #b00000000000000000000000000000001)) (fp.mul roundNearestTiesToEven (fp #b0 #b01111100111 #b0100010001000010110100000000000000000000000000000000) (select (arr!212 qq!74) #b00000000000000000000000000000000)))) #b00000000000000000000000000000010 (fp.add roundNearestTiesToEven (fp.add roundNearestTiesToEven (fp.mul roundNearestTiesToEven (fp #b0 #b01111111111 #b1001001000011111101101000000000000000000000000000000) (select (arr!212 qq!74) #b00000000000000000000000000000010)) (fp.mul roundNearestTiesToEven (fp #b0 #b01111100111 #b0100010001000010110100000000000000000000000000000000) (select (arr!212 qq!74) #b00000000000000000000000000000001))) (fp.mul roundNearestTiesToEven (fp #b0 #b01111001111 #b1000010001101001100010000000000000000000000000000000) (select (arr!212 qq!74) #b00000000000000000000000000000000)))) #b00000000000000000000000000000010)) (fp.leq (select (store (store (store ((as const (Array (_ BitVec 32) (_ FloatingPoint 11 53))) (fp #b0 #b00000000000 #b0000000000000000000000000000000000000000000000000000)) #b00000000000000000000000000000000 (fp.mul roundNearestTiesToEven (fp #b0 #b01111111111 #b1001001000011111101101000000000000000000000000000000) (select (arr!212 qq!74) #b00000000000000000000000000000000))) #b00000000000000000000000000000001 (fp.add roundNearestTiesToEven (fp.mul roundNearestTiesToEven (fp #b0 #b01111111111 #b1001001000011111101101000000000000000000000000000000) (select (arr!212 qq!74) #b00000000000000000000000000000001)) (fp.mul roundNearestTiesToEven (fp #b0 #b01111100111 #b0100010001000010110100000000000000000000000000000000) (select (arr!212 qq!74) #b00000000000000000000000000000000)))) #b00000000000000000000000000000010 (fp.add roundNearestTiesToEven (fp.add roundNearestTiesToEven (fp.mul roundNearestTiesToEven (fp #b0 #b01111111111 #b1001001000011111101101000000000000000000000000000000) (select (arr!212 qq!74) #b00000000000000000000000000000010)) (fp.mul roundNearestTiesToEven (fp #b0 #b01111100111 #b0100010001000010110100000000000000000000000000000000) (select (arr!212 qq!74) #b00000000000000000000000000000001))) (fp.mul roundNearestTiesToEven (fp #b0 #b01111001111 #b1000010001101001100010000000000000000000000000000000) (select (arr!212 qq!74) #b00000000000000000000000000000000)))) #b00000000000000000000000000000010) (fp #b0 #b01111010000 #b1100110001001011101000011101001010011001111110100000)) (fp.leq (fp #b0 #b00000000000 #b0000000000000000000000000000000000000000000000000000) (select (store (store (store (store ((as const (Array (_ BitVec 32) (_ FloatingPoint 11 53))) (fp #b0 #b00000000000 #b0000000000000000000000000000000000000000000000000000)) #b00000000000000000000000000000000 (fp.mul roundNearestTiesToEven (fp #b0 #b01111111111 #b1001001000011111101101000000000000000000000000000000) (select (arr!212 qq!74) #b00000000000000000000000000000000))) #b00000000000000000000000000000001 (fp.add roundNearestTiesToEven (fp.mul roundNearestTiesToEven (fp #b0 #b01111111111 #b1001001000011111101101000000000000000000000000000000) (select (arr!212 qq!74) #b00000000000000000000000000000001)) (fp.mul roundNearestTiesToEven (fp #b0 #b01111100111 #b0100010001000010110100000000000000000000000000000000) (select (arr!212 qq!74) #b00000000000000000000000000000000)))) #b00000000000000000000000000000010 (fp.add roundNearestTiesToEven (fp.add roundNearestTiesToEven (fp.mul roundNearestTiesToEven (fp #b0 #b01111111111 #b1001001000011111101101000000000000000000000000000000) (select (arr!212 qq!74) #b00000000000000000000000000000010)) (fp.mul roundNearestTiesToEven (fp #b0 #b01111100111 #b0100010001000010110100000000000000000000000000000000) (select (arr!212 qq!74) #b00000000000000000000000000000001))) (fp.mul roundNearestTiesToEven (fp #b0 #b01111001111 #b1000010001101001100010000000000000000000000000000000) (select (arr!212 qq!74) #b00000000000000000000000000000000)))) #b00000000000000000000000000000011 (fp.add roundNearestTiesToEven (fp.add roundNearestTiesToEven (fp.add roundNearestTiesToEven (fp.mul roundNearestTiesToEven (fp #b0 #b01111111111 #b1001001000011111101101000000000000000000000000000000) (select (arr!212 qq!74) #b00000000000000000000000000000011)) (fp.mul roundNearestTiesToEven (fp #b0 #b01111100111 #b0100010001000010110100000000000000000000000000000000) (select (arr!212 qq!74) #b00000000000000000000000000000010))) (fp.mul roundNearestTiesToEven (fp #b0 #b01111001111 #b1000010001101001100010000000000000000000000000000000) (select (arr!212 qq!74) #b00000000000000000000000000000001))) (fp.mul roundNearestTiesToEven (fp #b0 #b01110110111 #b1000110011000101000101100000000000000000000000000000) (select (arr!212 qq!74) #b00000000000000000000000000000000)))) #b00000000000000000000000000000011)) (fp.leq (select (store (store (store (store ((as const (Array (_ BitVec 32) (_ FloatingPoint 11 53))) (fp #b0 #b00000000000 #b0000000000000000000000000000000000000000000000000000)) #b00000000000000000000000000000000 (fp.mul roundNearestTiesToEven (fp #b0 #b01111111111 #b1001001000011111101101000000000000000000000000000000) (select (arr!212 qq!74) #b00000000000000000000000000000000))) #b00000000000000000000000000000001 (fp.add roundNearestTiesToEven (fp.mul roundNearestTiesToEven (fp #b0 #b01111111111 #b1001001000011111101101000000000000000000000000000000) (select (arr!212 qq!74) #b00000000000000000000000000000001)) (fp.mul roundNearestTiesToEven (fp #b0 #b01111100111 #b0100010001000010110100000000000000000000000000000000) (select (arr!212 qq!74) #b00000000000000000000000000000000)))) #b00000000000000000000000000000010 (fp.add roundNearestTiesToEven (fp.add roundNearestTiesToEven (fp.mul roundNearestTiesToEven (fp #b0 #b01111111111 #b1001001000011111101101000000000000000000000000000000) (select (arr!212 qq!74) #b00000000000000000000000000000010)) (fp.mul roundNearestTiesToEven (fp #b0 #b01111100111 #b0100010001000010110100000000000000000000000000000000) (select (arr!212 qq!74) #b00000000000000000000000000000001))) (fp.mul roundNearestTiesToEven (fp #b0 #b01111001111 #b1000010001101001100010000000000000000000000000000000) (select (arr!212 qq!74) #b00000000000000000000000000000000)))) #b00000000000000000000000000000011 (fp.add roundNearestTiesToEven (fp.add roundNearestTiesToEven (fp.add roundNearestTiesToEven (fp.mul roundNearestTiesToEven (fp #b0 #b01111111111 #b1001001000011111101101000000000000000000000000000000) (select (arr!212 qq!74) #b00000000000000000000000000000011)) (fp.mul roundNearestTiesToEven (fp #b0 #b01111100111 #b0100010001000010110100000000000000000000000000000000) (select (arr!212 qq!74) #b00000000000000000000000000000010))) (fp.mul roundNearestTiesToEven (fp #b0 #b01111001111 #b1000010001101001100010000000000000000000000000000000) (select (arr!212 qq!74) #b00000000000000000000000000000001))) (fp.mul roundNearestTiesToEven (fp #b0 #b01110110111 #b1000110011000101000101100000000000000000000000000000) (select (arr!212 qq!74) #b00000000000000000000000000000000)))) #b00000000000000000000000000000011) (fp #b0 #b01110111001 #b0100100001001011101001000100011000011011101101111000)) (bvsle #b00000000000000000000000000000100 i!327) (bvsle i!327 jz!70) (= (size!212 fq!78) #b00000000000000000000000000010100)))))

(assert (= (and start!1245 res!4679) b!5830))

(assert (= (and b!5830 res!4682) b!5831))

(assert (= (and b!5831 res!4681) b!5832))

(assert (= (and b!5832 res!4680) b!5833))

(declare-fun m!10589 () Bool)

(assert (=> b!5832 m!10589))

(declare-fun m!10591 () Bool)

(assert (=> b!5830 m!10591))

(declare-fun m!10593 () Bool)

(assert (=> start!1245 m!10593))

(declare-fun m!10595 () Bool)

(assert (=> start!1245 m!10595))

(declare-fun m!10597 () Bool)

(assert (=> b!5831 m!10597))

(declare-fun m!10599 () Bool)

(assert (=> b!5831 m!10599))

(declare-fun m!10601 () Bool)

(assert (=> b!5831 m!10601))

(declare-fun m!10603 () Bool)

(assert (=> b!5831 m!10603))

(declare-fun m!10605 () Bool)

(assert (=> b!5831 m!10605))

(declare-fun m!10607 () Bool)

(assert (=> b!5831 m!10607))

(declare-fun m!10609 () Bool)

(assert (=> b!5831 m!10609))

(declare-fun m!10611 () Bool)

(assert (=> b!5831 m!10611))

(declare-fun m!10613 () Bool)

(assert (=> b!5831 m!10613))

(declare-fun m!10615 () Bool)

(assert (=> b!5831 m!10615))

(declare-fun m!10617 () Bool)

(assert (=> b!5831 m!10617))

(declare-fun m!10619 () Bool)

(assert (=> b!5831 m!10619))

(push 1)

(assert (not b!5832))

(assert (not start!1245))

(assert (not b!5830))

(check-sat)

(pop 1)

(push 1)

(check-sat)

(pop 1)

